
Log started (V11.0.0) Fri May 16 19:20:39 2008

Tried aggregator 1 time.
Reduced MIP has 240 rows, 8001 columns, and 16040 nonzeros.
Presolve time =    0.06 sec.
Clique table members: 200.
MIP emphasis: balance optimality and feasibility.
MIP search method: dynamic search.
Parallel mode: none, using 1 thread.
Root relaxation solution time =    0.41 sec.

        Nodes                                         Cuts/
   Node  Left     Objective  IInf  Best Integer     Best Node    ItCnt     Gap

*     0+    0                        22023.0000      500.8003      560   97.73%
*     0+    0                          504.0000      500.8003      560    0.63%
      0     0      501.0000    51      504.0000      Fract: 6      582    0.60%
      0     0      501.0000    58      504.0000     Covers: 3      602    0.60%
      0     0      501.0000    63      504.0000     Covers: 1      621    0.60%
      0     2      501.0000    63      504.0000      501.0000      621    0.60%
    100    41        cutoff            504.0000      501.0000     4768    0.60%
    200    66        cutoff            504.0000      501.0000    11473    0.60%
    300    73      502.0000    67      504.0000      501.0000    16207    0.60%
    400    84    infeasible            504.0000      501.0000    19881    0.60%
*   476+   56                          503.0000      501.0000    26907    0.40%
    500    62      502.0000    45      503.0000      501.0000    27375    0.40%
    600    43      502.0000    48      503.0000      501.0000    42857    0.40%
    700    73      502.0000    67      503.0000      501.0000    56089    0.40%
    800   106      502.0000    58      503.0000      501.0000    63325    0.40%
    900   143      502.0000    53      503.0000      501.0000    68043    0.40%
   1000   187      501.0000    52      503.0000      501.0000    73858    0.40%
Elapsed time =  44.86 sec. (tree size =  0.95 MB, solutions = 3)
   1100   257    infeasible            503.0000      501.0000    83996    0.40%
   1200   263      502.0000    53      503.0000      501.0000   145159    0.40%
   1300   279      501.0000    68      503.0000      501.0000   182735    0.40%
   1400   376      502.0000    38      503.0000      501.0000   185259    0.40%
   1500   476      502.0000     9      503.0000      501.0000   185511    0.40%
   1600   576      502.0000    36      503.0000      501.0000   185982    0.40%
   1700   676      502.0000    42      503.0000      501.0000   186235    0.40%
   1800   776      502.0000    49      503.0000      501.0000   186485    0.40%
   1900   876      502.0000    54      503.0000      501.0000   186698    0.40%
   2000   966      502.0000    47      503.0000      501.0000   187039    0.40%
Elapsed time =  89.11 sec. (tree size =  5.74 MB, solutions = 3)
   2100  1066      502.0000    56      503.0000      501.0000   187599    0.40%
   2200  1166      502.0000    62      503.0000      501.0000   188450    0.40%
   2300  1265      502.0000    58      503.0000      501.0000   189652    0.40%
   2400  1365      502.0000    52      503.0000      501.0000   190704    0.40%
   2500  1465      502.0000    55      503.0000      501.0000   191362    0.40%
   2600  1565      502.0000    62      503.0000      501.0000   191994    0.40%
   2700  1665      502.0000    52      503.0000      501.0000   192349    0.40%
   2800  1765      502.0000    56      503.0000      501.0000   192674    0.40%
   2900  1836      502.0000    48      503.0000      501.0000   194509    0.40%
   3000  1916      502.0000    32      503.0000      501.0000   199844    0.40%
Elapsed time = 106.73 sec. (tree size = 11.69 MB, solutions = 3)
   3100  1946      502.0000    23      503.0000      501.0000   237987    0.40%
   3200  1962      502.0000    45      503.0000      501.0000   279544    0.40%
   3300  2008      502.0000    60      503.0000      501.0000   301305    0.40%
   3400  2067      502.0000    62      503.0000      501.0000   320759    0.40%
   3500  2126      502.0000    63      503.0000      501.0000   349682    0.40%
   3600  2208      501.0018    86      503.0000      501.0000   359276    0.40%
   3700  2256      502.0000    58      503.0000      501.0000   393923    0.40%
   3800  2325      502.0000    57      503.0000      501.0000   413386    0.40%
   3900  2397      502.0000    56      503.0000      501.0000   429993    0.40%
   4000  2452      502.0000    27      503.0000      501.0000   465056    0.40%
Elapsed time = 185.38 sec. (tree size = 15.16 MB, solutions = 3)
   4100  2512      502.0000    64      503.0000      501.0000   501241    0.40%
   4200  2571      502.0000    50      503.0000      501.0000   516626    0.40%
   4300  2643      502.0000    41      503.0000      501.0000   549077    0.40%
   4400  2710      502.0000    51      503.0000      501.0000   571508    0.40%
   4500  2754      502.0000    37      503.0000      501.0000   615526    0.40%
   4600  2818      502.0000    66      503.0000      501.0000   647749    0.40%
   4700  2869      502.0000    72      503.0000      501.0000   681654    0.40%
   4800  2942    infeasible            503.0000      501.0000   689952    0.40%
   4900  3001      502.0000    73      503.0000      501.0000   714873    0.40%
   5000  3068      502.0000    52      503.0000      501.0000   735188    0.40%
Elapsed time = 277.94 sec. (tree size = 19.65 MB, solutions = 3)
   5100  3126      502.0000    47      503.0000      501.0000   763680    0.40%
   5200  3164        cutoff            503.0000      501.0000   797650    0.40%
   5300  3064        cutoff            503.0000      501.0000   852646    0.40%
   5400  2964        cutoff            503.0000      501.0000   902289    0.40%
   5500  2864    infeasible            503.0000      502.0000   965071    0.20%
   5600  2764    infeasible            503.0000      502.0000  1102102    0.20%
   5700  2664    infeasible            503.0000      502.0000  1242688    0.20%
   5800  2564    infeasible            503.0000      502.0000  1377682    0.20%
   5900  2464    infeasible            503.0000      502.0000  1504212    0.20%
   6000  2364    infeasible            503.0000      502.0000  1636023    0.20%
Elapsed time = 546.06 sec. (tree size = 15.44 MB, solutions = 3)
   6100  2264    infeasible            503.0000      502.0000  1763940    0.20%
   6200  2164    infeasible            503.0000      502.0000  1912164    0.20%
   6300  2064    infeasible            503.0000      502.0000  2051148    0.20%
   6400  1964    infeasible            503.0000      502.0000  2195878    0.20%
   6500  1864    infeasible            503.0000      502.0000  2335485    0.20%
   6600  1764    infeasible            503.0000      502.0000  2471879    0.20%
   6700  1664    infeasible            503.0000      502.0000  2602465    0.20%
   6800  1564    infeasible            503.0000      502.0000  2752458    0.20%
   6900  1464    infeasible            503.0000      502.0000  2905245    0.20%
   7000  1364    infeasible            503.0000      502.0000  3055441    0.20%
Elapsed time = 895.52 sec. (tree size =  8.97 MB, solutions = 3)
   7100  1264    infeasible            503.0000      502.0000  3210216    0.20%
   7200  1164    infeasible            503.0000      502.0000  3369536    0.20%
   7300  1064    infeasible            503.0000      502.0000  3538230    0.20%
   7400   964    infeasible            503.0000      502.0000  3711693    0.20%
   7500   864    infeasible            503.0000      502.0000  3876769    0.20%
   7600   764        cutoff            503.0000      502.0000  4054075    0.20%
   7700   664    infeasible            503.0000      502.0000  4206825    0.20%
   7800   564    infeasible            503.0000      502.0000  4381450    0.20%
   7900   464    infeasible            503.0000      502.0000  4564765    0.20%
   8000   364    infeasible            503.0000      502.0000  4748249    0.20%
Elapsed time = 1292.58 sec. (tree size =  2.55 MB, solutions = 3)
   8100   264    infeasible            503.0000      502.0000  4949290    0.20%
   8200   164    infeasible            503.0000      502.0000  5154254    0.20%
   8300    64        cutoff            503.0000      502.0000  5328278    0.20%

Cover cuts applied:  249
Mixed integer rounding cuts applied:  2
Gomory fractional cuts applied:  7

Solution pool: 3 solutions saved.

MIP - Integer optimal solution:  Objective = 5.0300000000e+002
Solution time = 1462.52 sec.  Iterations = 5426719  Nodes = 8365


Incumbent solution
Variable Name           Solution Value
Cmax                        503.000000
X_1_6                         1.000000
X_2_18                        1.000000
X_3_37                        1.000000
X_4_5                         1.000000
X_5_19                        1.000000
X_6_35                        1.000000
X_7_8                         1.000000
X_8_39                        1.000000
X_9_4                         1.000000
X_10_39                       1.000000
X_11_10                       1.000000
X_12_29                       1.000000
X_13_18                       1.000000
X_14_31                       1.000000
X_15_4                        1.000000
X_16_11                       1.000000
X_17_28                       1.000000
X_18_13                       1.000000
X_19_33                       1.000000
X_20_40                       1.000000
X_21_20                       1.000000
X_22_1                        1.000000
X_23_27                       1.000000
X_24_16                       1.000000
X_25_26                       1.000000
X_26_24                       1.000000
X_27_33                       1.000000
X_28_3                        1.000000
X_29_35                       1.000000
X_30_29                       1.000000
X_31_5                        1.000000
X_32_34                       1.000000
X_33_35                       1.000000
X_34_14                       1.000000
X_35_1                        1.000000
X_36_6                        1.000000
X_37_3                        1.000000
X_38_21                       1.000000
X_39_16                       1.000000
X_40_10                       1.000000
X_41_3                        1.000000
X_42_31                       1.000000
X_43_8                        1.000000
X_44_38                       1.000000
X_45_17                       1.000000
X_46_13                       1.000000
X_47_30                       1.000000
X_48_19                       1.000000
X_49_21                       1.000000
X_50_38                       1.000000
X_51_5                        1.000000
X_52_4                        1.000000
X_53_9                        1.000000
X_54_34                       1.000000
X_55_25                       1.000000
X_56_20                       1.000000
X_57_10                       1.000000
X_58_23                       1.000000
X_59_32                       1.000000
X_60_32                       1.000000
X_61_5                        1.000000
X_62_2                        1.000000
X_63_39                       1.000000
X_64_7                        1.000000
X_65_15                       1.000000
X_66_30                       1.000000
X_67_6                        1.000000
X_68_31                       1.000000
X_69_25                       1.000000
X_70_17                       1.000000
X_71_25                       1.000000
X_72_8                        1.000000
X_73_40                       1.000000
X_74_11                       1.000000
X_75_38                       1.000000
X_76_23                       1.000000
X_77_25                       1.000000
X_78_18                       1.000000
X_79_19                       1.000000
X_80_14                       1.000000
X_81_26                       1.000000
X_82_21                       1.000000
X_83_24                       1.000000
X_84_12                       1.000000
X_85_28                       1.000000
X_86_4                        1.000000
X_87_29                       1.000000
X_88_40                       1.000000
X_89_28                       1.000000
X_90_7                        1.000000
X_91_9                        1.000000
X_92_13                       1.000000
X_93_2                        1.000000
X_94_33                       1.000000
X_95_27                       1.000000
X_96_18                       1.000000
X_97_11                       1.000000
X_98_35                       1.000000
X_99_29                       1.000000
X_100_14                      1.000000
X_101_1                       1.000000
X_102_30                      1.000000
X_103_22                      1.000000
X_104_13                      1.000000
X_105_36                      1.000000
X_106_3                       1.000000
X_107_39                      1.000000
X_108_2                       1.000000
X_109_15                      1.000000
X_110_37                      1.000000
X_111_23                      1.000000
X_112_16                      1.000000
X_113_12                      1.000000
X_114_36                      1.000000
X_115_27                      1.000000
X_116_14                      1.000000
X_117_19                      1.000000
X_118_7                       1.000000
X_119_24                      1.000000
X_120_7                       1.000000
X_121_31                      1.000000
X_122_3                       1.000000
X_123_22                      1.000000
X_124_36                      1.000000
X_125_6                       1.000000
X_126_1                       1.000000
X_127_5                       1.000000
X_128_22                      1.000000
X_129_28                      1.000000
X_130_26                      1.000000
X_131_20                      1.000000
X_132_30                      1.000000
X_133_25                      1.000000
X_134_37                      1.000000
X_135_33                      1.000000
X_136_37                      1.000000
X_137_27                      1.000000
X_138_27                      1.000000
X_139_16                      1.000000
X_140_11                      1.000000
X_141_33                      1.000000
X_142_20                      1.000000
X_143_40                      1.000000
X_144_16                      1.000000
X_145_9                       1.000000
X_146_39                      1.000000
X_147_21                      1.000000
X_148_10                      1.000000
X_149_4                       1.000000
X_150_11                      1.000000
X_151_15                      1.000000
X_152_10                      1.000000
X_153_32                      1.000000
X_154_38                      1.000000
X_155_23                      1.000000
X_156_2                       1.000000
X_157_30                      1.000000
X_158_15                      1.000000
X_159_34                      1.000000
X_160_36                      1.000000
X_161_8                       1.000000
X_162_17                      1.000000
X_163_26                      1.000000
X_164_32                      1.000000
X_165_17                      1.000000
X_166_7                       1.000000
X_167_29                      1.000000
X_168_12                      1.000000
X_169_37                      1.000000
X_170_36                      1.000000
X_171_17                      1.000000
X_172_40                      1.000000
X_173_35                      1.000000
X_174_20                      1.000000
X_175_32                      1.000000
X_176_24                      1.000000
X_177_28                      1.000000
X_178_15                      1.000000
X_179_14                      1.000000
X_180_12                      1.000000
X_181_19                      1.000000
X_182_18                      1.000000
X_183_8                       1.000000
X_184_23                      1.000000
X_185_9                       1.000000
X_186_1                       1.000000
X_187_9                       1.000000
X_188_24                      1.000000
X_189_22                      1.000000
X_190_6                       1.000000
X_191_31                      1.000000
X_192_21                      1.000000
X_193_2                       1.000000
X_194_34                      1.000000
X_195_22                      1.000000
X_196_12                      1.000000
X_197_26                      1.000000
X_198_13                      1.000000
X_199_34                      1.000000
X_200_38                      1.000000
All other variables in the range 1-8001 are 0.
